qbf_easy_train/easy_4257_UNSAT.qdimacs
p cnf 38 108
a 16 18 26 0
e 1 2 3 4 5 6 7 8 9 10 11 12 13 14 15 17 19 20 21 22 23 24 25 27 28 29 30 31 32 33 34 35 36 37 38 0
1 -2 -3 0
-1 2 -3 0
1 2 3 0
-1 -2 3 0
-5 -4 0
-5 -4 0
4 5 0
6 -1 0
6 5 0
1 -5 -6 0
8 6 0
8 -7 0
-6 7 -8 0
3 8 -9 0
-3 -8 -9 0
3 -8 9 0
-3 8 9 0
12 -8 0
12 2 0
8 -2 -12 0
-12 8 -13 0
12 -8 -13 0
-12 -8 13 0
12 8 13 0
-11 13 -14 0
11 -13 -14 0
-11 -13 14 0
11 13 14 0
10 14 -15 0
-10 -14 -15 0
10 -14 15 0
-10 14 15 0
16 -15 0
16 10 0
15 -10 -16 0
-17 9 0
-17 -16 0
-9 16 17 0
-18 -5 0
-18 3 0
5 -3 18 0
19 18 0
19 -12 0
-18 12 -19 0
20 -17 0
20 -19 0
17 19 -20 0
-21 4 0
-21 -7 0
-4 7 21 0
22 13 0
22 -21 0
-13 21 -22 0
-24 -1 0
-24 -23 0
1 23 24 0
25 -10 0
25 -11 0
10 11 -25 0
-26 -4 0
-26 5 0
4 -5 26 0
-27 -25 0
-27 26 0
25 -26 27 0
28 -27 0
28 -5 0
27 5 -28 0
24 -28 -29 0
-24 28 -29 0
24 28 29 0
-24 -28 29 0
-30 22 0
-30 -29 0
-22 29 30 0
-31 -11 0
-31 -6 0
11 6 31 0
-32 -23 0
-32 -5 0
23 5 32 0
-34 33 0
-34 5 0
-33 -5 34 0
-32 -34 -35 0
32 34 -35 0
-32 34 35 0
32 -34 35 0
36 -31 0
36 -35 0
31 35 -36 0
-37 30 0
-37 -36 0
-30 36 37 0
38 20 0
38 37 0
-20 -37 -38 0
2 25 -17 -23 34 -37 5 -19 0
19 27 36 35 33 7 0
38 -1 18 0
-5 -12 30 -16 25 15 0
36 3 24 -15 -32 -18 0
-4 -31 -30 25 28 -17 36 -32 0
18 17 -30 6 -31 38 -26 0
16 10 -6 -15 22 8 -25 0
-18 -7 -34 0
9 20 7 13 0
38 0
