sat_easy_train/easy_4257_UNSAT.dimacs
p cnf 149 506
3 1 0
3 2 0
-1 -2 -3 0
-3 4 -5 0
3 -4 -5 0
-3 -4 5 0
3 4 5 0
-6 -7 -8 0
6 7 -8 0
-6 7 8 0
6 -7 8 0
-5 -8 -9 0
5 8 -9 0
-5 8 9 0
5 -8 9 0
11 -4 0
11 -10 0
4 10 -11 0
-9 -11 -12 0
9 11 -12 0
-9 11 12 0
9 -11 12 0
-14 -13 0
-14 -8 0
13 8 14 0
-15 14 0
-15 2 0
-14 -2 15 0
12 -15 -16 0
-12 15 -16 0
12 15 16 0
-12 -15 16 0
-17 -14 -18 0
17 14 -18 0
-17 14 18 0
17 -14 18 0
-3 18 -19 0
3 -18 -19 0
-3 -18 19 0
3 18 19 0
-20 5 0
-20 19 0
-5 -19 20 0
-21 16 0
-21 20 0
-16 -20 21 0
-6 -1 -22 0
6 1 -22 0
-6 1 22 0
6 -1 22 0
1 23 -24 0
-1 -23 -24 0
1 -23 24 0
-1 23 24 0
25 -24 0
25 13 0
24 -13 -25 0
-26 -25 0
-26 14 0
25 -14 26 0
-27 9 0
-27 -26 0
-9 26 27 0
-22 -27 -28 0
22 27 -28 0
-22 27 28 0
22 -27 28 0
29 -1 0
29 8 0
1 -8 -29 0
30 -26 0
30 -24 0
26 24 -30 0
-31 29 0
-31 -30 0
-29 30 31 0
-31 -32 -33 0
31 32 -33 0
-31 32 33 0
31 -32 33 0
36 10 0
36 -35 0
-10 35 -36 0
-37 36 0
-37 10 0
-36 -10 37 0
-38 -1 0
-38 -17 0
1 17 38 0
37 38 -39 0
-37 -38 -39 0
37 -38 39 0
-37 38 39 0
40 34 0
40 39 0
-34 -39 -40 0
41 33 0
41 -40 0
-33 40 -41 0
42 -28 0
42 -41 0
28 41 -42 0
-43 21 0
-43 -42 0
-21 42 43 0
44 -23 0
44 -13 0
23 13 -44 0
-37 44 -45 0
37 -44 -45 0
-37 -44 45 0
37 44 45 0
-47 46 0
-47 -11 0
-46 11 47 0
48 -45 0
48 -47 0
45 47 -48 0
-43 48 -49 0
43 -48 -49 0
-43 -48 49 0
43 48 49 0
-50 24 0
-50 37 0
-24 -37 50 0
51 -15 0
51 -9 0
15 9 -51 0
52 31 0
52 -51 0
-31 51 -52 0
53 17 0
53 -6 0
-17 6 -53 0
54 35 0
54 -53 0
-35 53 -54 0
-55 3 0
-55 18 0
-3 -18 55 0
-57 -36 0
-57 56 0
36 -56 57 0
58 -1 0
58 -57 0
1 57 -58 0
-60 3 0
-60 59 0
-3 -59 60 0
61 36 0
61 -60 0
-36 60 -61 0
-9 -61 -62 0
9 61 -62 0
-9 61 62 0
9 -61 62 0
58 -62 -63 0
-58 62 -63 0
58 62 63 0
-58 -62 63 0
-64 -55 0
-64 63 0
55 -63 64 0
-54 -64 -65 0
54 64 -65 0
-54 64 65 0
54 -64 65 0
66 -52 0
66 65 0
52 -65 -66 0
-50 66 -67 0
50 -66 -67 0
-50 -66 67 0
50 66 67 0
68 -56 0
68 -8 0
56 8 -68 0
-69 68 0
-69 -12 0
-68 12 69 0
70 24 0
70 60 0
-24 -60 -70 0
-3 -70 -71 0
3 70 -71 0
-3 70 71 0
3 -70 71 0
71 34 -72 0
-71 -34 -72 0
71 -34 72 0
-71 34 72 0
73 -22 0
73 72 0
22 -72 -73 0
74 69 0
74 -73 0
-69 73 -74 0
75 10 0
75 17 0
-10 -17 -75 0
-74 -75 -76 0
74 75 -76 0
-74 75 76 0
74 -75 76 0
-3 -14 -77 0
3 14 -77 0
-3 14 77 0
3 -14 77 0
78 15 0
78 -77 0
-15 77 -78 0
79 76 0
79 78 0
-76 -78 -79 0
80 67 0
80 79 0
-67 -79 -80 0
-81 -55 0
-81 -23 0
55 23 81 0
4 -17 -82 0
-4 17 -82 0
4 17 82 0
-4 -17 82 0
-83 82 0
-83 -72 0
-82 72 83 0
-84 81 0
-84 83 0
-81 -83 84 0
85 -80 0
85 84 0
80 -84 -85 0
49 85 -86 0
-49 -85 -86 0
49 -85 86 0
-49 85 86 0
-87 35 0
-87 70 0
-35 -70 87 0
88 -24 0
88 61 0
24 -61 -88 0
89 -87 0
89 -88 0
87 88 -89 0
90 9 0
90 -25 0
-9 25 -90 0
91 -15 0
91 -2 0
15 2 -91 0
-92 -91 0
-92 -13 0
91 13 92 0
-93 22 0
-93 -9 0
-22 9 93 0
-93 91 -94 0
93 -91 -94 0
-93 -91 94 0
93 91 94 0
-96 95 0
-96 -5 0
-95 5 96 0
97 -94 0
97 -96 0
94 96 -97 0
98 -53 0
98 -57 0
53 57 -98 0
-99 -6 0
-99 -6 0
6 99 0
100 99 0
100 -59 0
-99 59 -100 0
101 -59 0
101 100 0
59 -100 -101 0
98 101 -102 0
-98 -101 -102 0
98 -101 102 0
-98 101 102 0
-103 -5 0
-103 102 0
5 -102 103 0
-58 -91 -104 0
58 91 -104 0
-58 91 104 0
58 -91 104 0
105 103 0
105 104 0
-103 -104 -105 0
106 -97 0
106 -105 0
97 105 -106 0
-107 92 0
-107 106 0
-92 -106 107 0
90 -107 -108 0
-90 107 -108 0
90 107 108 0
-90 -107 108 0
-109 -89 0
-109 -108 0
89 108 109 0
86 -109 -110 0
-86 109 -110 0
86 109 110 0
-86 -109 110 0
111 58 0
111 -100 0
-58 100 -111 0
112 55 0
112 111 0
-55 -111 -112 0
-7 51 -113 0
7 -51 -113 0
-7 -51 113 0
7 51 113 0
-68 -35 -114 0
68 35 -114 0
-68 35 114 0
68 -35 114 0
115 -99 0
115 111 0
99 -111 -115 0
116 -26 0
116 -17 0
26 17 -116 0
-116 -51 -117 0
116 51 -117 0
-116 51 117 0
116 -51 117 0
118 115 0
118 117 0
-115 -117 -118 0
-119 114 0
-119 118 0
-114 -118 119 0
120 -38 0
120 -116 0
38 116 -120 0
4 14 -121 0
-4 -14 -121 0
4 -14 121 0
-4 14 121 0
122 -120 0
122 -121 0
120 121 -122 0
123 -62 0
123 122 0
62 -122 -123 0
119 123 -124 0
-119 -123 -124 0
119 -123 124 0
-119 123 124 0
-125 46 0
-125 -12 0
-46 12 125 0
-15 -6 -126 0
15 6 -126 0
-15 6 126 0
15 -6 126 0
-125 -126 -127 0
125 126 -127 0
-125 126 127 0
125 -126 127 0
128 124 0
128 127 0
-124 -127 -128 0
113 128 -129 0
-113 -128 -129 0
113 -128 129 0
-113 128 129 0
-57 12 -130 0
57 -12 -130 0
-57 -12 130 0
57 12 130 0
-116 -7 -131 0
116 7 -131 0
-116 7 131 0
116 -7 131 0
132 -130 0
132 -131 0
130 131 -132 0
-133 -129 0
-133 132 0
129 -132 133 0
134 112 0
134 133 0
-112 -133 -134 0
-135 -56 0
-135 4 0
56 -4 135 0
136 -135 0
136 -19 0
135 19 -136 0
137 -77 0
137 11 0
77 -11 -137 0
-138 82 0
-138 137 0
-82 -137 138 0
139 138 0
139 71 0
-138 -71 -139 0
-140 136 0
-140 139 0
-136 -139 140 0
141 -15 0
141 135 0
15 -135 -141 0
142 68 0
142 7 0
-68 -7 -142 0
143 -142 0
143 -61 0
142 61 -143 0
-144 -141 0
-144 -143 0
141 143 144 0
140 144 -145 0
-140 -144 -145 0
140 -144 145 0
-140 144 145 0
146 -7 0
146 -136 0
7 136 -146 0
-147 -145 0
-147 146 0
145 -146 147 0
-148 -134 0
-148 -147 0
134 147 148 0
149 110 0
149 148 0
-110 -148 -149 0
69 -18 74 61 -105 0
-3 -15 70 -140 -55 -84 0
57 109 0
-117 -53 57 0
74 97 61 105 130 0
-111 36 91 -109 0
-148 87 -6 133 93 0
60 23 -1 -48 -148 -35 0
-97 -13 -115 0
119 127 -41 0
-138 -92 116 46 76 104 0
-24 -100 0
139 -53 131 64 0
-56 -63 0
-115 -139 -78 0
-96 87 103 -144 0
111 5 -124 -46 0
146 13 19 0
-37 -62 143 -100 13 3 0
97 -131 -74 55 0
-94 53 -54 0
-23 -39 44 -18 -92 0
90 67 41 0
-31 -106 -57 47 83 -97 0
-23 -145 -11 122 0
2 106 85 0
95 -12 0
-42 -22 -79 11 0
140 111 -30 -70 73 -50 0
-35 -37 0
11 -33 -58 46 0
119 -130 135 -87 55 0
72 8 79 -110 34 0
-44 -28 0
97 -11 13 0
-92 53 0
89 -124 93 -141 0
37 52 -123 84 80 -50 0
-6 -52 -125 -23 -80 0
27 -33 -40 0
-115 129 -120 61 63 0
141 113 91 -13 104 48 0
-8 -82 0
97 64 -90 0
14 142 41 -131 -78 -46 0
-3 -103 70 37 0
144 -149 -130 138 56 -3 0
46 48 91 142 42 0
116 -33 132 0
-27 -38 0
-140 -136 -32 121 -68 0
-130 45 39 -29 23 37 0
-6 -79 0
106 -125 -119 -63 0
-34 88 122 128 0
-5 72 142 68 115 0
-118 120 0
12 72 -86 0
106 14 98 68 57 0
-119 -23 0
76 -146 38 -24 -77 0
-46 86 -133 0
-148 -132 -70 -123 0
-41 142 -115 -44 79 0
-57 32 -97 1 -115 0
-56 -8 0
149 0
